Cu
 1.0000000000000000
     7.2000000000000002    0.0000000000000000    0.0000000000000000
     0.0000000000000000    7.2000000000000002    0.0000000000000000
     0.0000000000000000    0.0000000000000000    7.2000000000000002
 Cu 
   8
Direct
  0.0000000000000000  0.0000000000000000  0.0000000000000000
  0.0000000000000000  0.0000000000000000  0.5000000000000000
  0.0000000000000000  0.5000000000000000  0.0000000000000000
  0.0000000000000000  0.5000000000000000  0.5000000000000000
  0.5000000000000000  0.0000000000000000  0.0000000000000000
  0.5000000000000000  0.0000000000000000  0.5000000000000000
  0.5000000000000000  0.5000000000000000  0.0000000000000000
  0.5000000000000000  0.5000000000000000  0.5000000000000000
