Cu
 1.0000000000000000
     5.1053109601668734    0.0000000000000000    0.0000000000000000
     2.5526554800834367    4.4213289857236360    0.0000000000000000
     0.0000000000000000    0.0000000000000000   22.0842344717745505
 Cu 
   8
Cartesian
 -0.0000000000000000  1.4737763285745453 10.0000000000000000
  2.5526554800834367  1.4737763285745453 10.0000000000000000
  1.2763277400417181  3.6844408214363629 10.0000000000000000
  3.8289832201251550  3.6844408214363629 10.0000000000000000
  0.0000000000000000  0.0000000000000000 12.0842344717745487
  2.5526554800834367  0.0000000000000000 12.0842344717745487
  1.2763277400417183  2.2106644928618180 12.0842344717745487
  3.8289832201251550  2.2106644928618180 12.0842344717745487
