Cu
 1.0000000000000000
     3.6150000000000002    0.0000000000000000    0.0000000000000000
     0.0000000000000000    3.6150000000000002    0.0000000000000000
     0.0000000000000000    0.0000000000000000    3.6150000000000002
 Cu 
   4
Cartesian
  0.0000000000000000  0.0000000000000000  0.0000000000000000
  0.0000000000000000  1.8075000000000001  1.8075000000000001
  1.8075000000000001  0.0000000000000000  1.8075000000000001
  1.8075000000000001  1.8075000000000001  0.0000000000000000
